p cnf 260 1216
87 91 124 170 0
108 113 120 127 176 0
64 111 137 188 0
53 82 190 0
27 75 109 133 238 0
67 78 105 140 146 0
74 152 198 0
138 139 142 143 145 0
76 97 148 150 226 0
71 156 159 162 164 0
16 36 85 166 0
88 107 116 126 128 167 172 0
118 174 178 179 0
60 61 63 131 135 0
57 59 80 202 0
10 51 102 0
43 44 47 95 0
41 104 0
39 40 0
154 157 161 0
38 122 0
92 117 175 0
33 58 83 0
31 32 49 52 0
22 24 25 0
19 21 0
77 151 0
15 160 163 0
35 94 0
13 14 81 0
11 12 55 79 0
9 29 42 130 0
7 101 0
5 6 17 72 115 0
2 3 100 0
158 180 0
181 182 183 0
93 125 171 184 0
119 185 0
28 110 189 0
191 192 0
194 249 0
149 153 197 199 0
98 195 201 228 0
37 86 165 0
56 106 0
203 206 0
46 73 0
-108 -137 0
-75 -108 0
-108 -208 0
-78 -108 0
-75 -137 0
-137 -208 0
-78 -137 0
-75 -208 0
-75 -78 0
-78 -208 0
-138 -148 0
-107 -138 0
-138 -174 0
-131 -138 0
-107 -148 0
-148 -174 0
-131 -148 0
-107 -174 0
-107 -131 0
-131 -174 0
-209 -210 0
-160 -209 0
-94 -209 0
-209 -211 0
-160 -210 0
-94 -210 0
-210 -211 0
-94 -160 0
-160 -211 0
-94 -211 0
-29 -55 0
-55 -115 0
-55 -100 0
-55 -212 0
-29 -115 0
-29 -100 0
-29 -212 0
-100 -115 0
-115 -212 0
-100 -212 0
-213 -214 0
-197 -213 0
-98 -213 0
-165 -213 0
-197 -214 0
-98 -214 0
-165 -214 0
-98 -197 0
-165 -197 0
-98 -165 0
-108 -138 0
-108 -209 0
-55 -108 0
-108 -213 0
-138 -209 0
-55 -138 0
-138 -213 0
-55 -209 0
-209 -213 0
-55 -213 0
-137 -148 0
-137 -210 0
-29 -137 0
-137 -214 0
-148 -210 0
-29 -148 0
-148 -214 0
-29 -210 0
-210 -214 0
-29 -214 0
-75 -107 0
-75 -160 0
-75 -115 0
-75 -197 0
-107 -160 0
-107 -115 0
-107 -197 0
-115 -160 0
-160 -197 0
-115 -197 0
-174 -208 0
-94 -208 0
-100 -208 0
-98 -208 0
-94 -174 0
-100 -174 0
-98 -174 0
-94 -100 0
-94 -98 0
-98 -100 0
-78 -131 0
-78 -211 0
-78 -212 0
-78 -165 0
-131 -211 0
-131 -212 0
-131 -165 0
-211 -212 0
-165 -211 0
-165 -212 0
-113 -188 0
-113 -190 0
-113 -216 0
-113 -140 0
-188 -190 0
-188 -216 0
-140 -188 0
-190 -216 0
-140 -190 0
-140 -216 0
-139 -226 0
-139 -156 0
-16 -139 0
-135 -139 0
-156 -226 0
-16 -226 0
-135 -226 0
-16 -156 0
-135 -156 0
-16 -135 0
-217 -218 0
-144 -217 0
-77 -217 0
-129 -217 0
-144 -218 0
-77 -218 0
-129 -218 0
-77 -144 0
-129 -144 0
-77 -129 0
-9 -79 0
-45 -79 0
-7 -79 0
-79 -220 0
-9 -45 0
-7 -9 0
-9 -220 0
-7 -45 0
-45 -220 0
-7 -220 0
-62 -106 0
-62 -173 0
-62 -132 0
-62 -73 0
-106 -173 0
-106 -132 0
-73 -106 0
-132 -173 0
-73 -173 0
-73 -132 0
-113 -139 0
-113 -217 0
-79 -113 0
-62 -113 0
-139 -217 0
-79 -139 0
-62 -139 0
-79 -217 0
-62 -217 0
-62 -79 0
-188 -226 0
-188 -218 0
-9 -188 0
-106 -188 0
-218 -226 0
-9 -226 0
-106 -226 0
-9 -218 0
-106 -218 0
-9 -106 0
-156 -190 0
-144 -190 0
-45 -190 0
-173 -190 0
-144 -156 0
-45 -156 0
-156 -173 0
-45 -144 0
-144 -173 0
-45 -173 0
-16 -216 0
-77 -216 0
-7 -216 0
-132 -216 0
-16 -77 0
-7 -16 0
-16 -132 0
-7 -77 0
-77 -132 0
-7 -132 0
-135 -140 0
-129 -140 0
-140 -220 0
-73 -140 0
-129 -135 0
-135 -220 0
-73 -135 0
-129 -220 0
-73 -129 0
-73 -220 0
-120 -124 0
-64 -124 0
-50 -124 0
-124 -133 0
-74 -124 0
-64 -120 0
-50 -120 0
-120 -133 0
-74 -120 0
-50 -64 0
-64 -133 0
-64 -74 0
-50 -133 0
-50 -74 0
-74 -133 0
-142 -222 0
-150 -222 0
-166 -222 0
-116 -222 0
-202 -222 0
-142 -150 0
-142 -166 0
-116 -142 0
-142 -202 0
-150 -166 0
-116 -150 0
-150 -202 0
-116 -166 0
-166 -202 0
-116 -202 0
-47 -102 0
-102 -204 0
-18 -102 0
-4 -102 0
-102 -154 0
-47 -204 0
-18 -47 0
-4 -47 0
-47 -154 0
-18 -204 0
-4 -204 0
-154 -204 0
-4 -18 0
-18 -154 0
-4 -154 0
-38 -223 0
-92 -223 0
-33 -223 0
-32 -223 0
-193 -223 0
-38 -92 0
-33 -38 0
-32 -38 0
-38 -193 0
-33 -92 0
-32 -92 0
-92 -193 0
-32 -33 0
-33 -193 0
-32 -193 0
-158 -224 0
-181 -224 0
-114 -224 0
-99 -224 0
-189 -224 0
-158 -181 0
-114 -158 0
-99 -158 0
-158 -189 0
-114 -181 0
-99 -181 0
-181 -189 0
-99 -114 0
-114 -189 0
-99 -189 0
-191 -215 0
-20 -191 0
-141 -191 0
-149 -191 0
-191 -227 0
-20 -215 0
-141 -215 0
-149 -215 0
-215 -227 0
-20 -141 0
-20 -149 0
-20 -227 0
-141 -149 0
-141 -227 0
-149 -227 0
-124 -222 0
-102 -124 0
-124 -223 0
-124 -224 0
-124 -191 0
-102 -222 0
-222 -223 0
-222 -224 0
-191 -222 0
-102 -223 0
-102 -224 0
-102 -191 0
-223 -224 0
-191 -223 0
-191 -224 0
-120 -142 0
-47 -120 0
-38 -120 0
-120 -158 0
-120 -215 0
-47 -142 0
-38 -142 0
-142 -158 0
-142 -215 0
-38 -47 0
-47 -158 0
-47 -215 0
-38 -158 0
-38 -215 0
-158 -215 0
-64 -150 0
-64 -204 0
-64 -92 0
-64 -181 0
-20 -64 0
-150 -204 0
-92 -150 0
-150 -181 0
-20 -150 0
-92 -204 0
-181 -204 0
-20 -204 0
-92 -181 0
-20 -92 0
-20 -181 0
-50 -166 0
-18 -50 0
-33 -50 0
-50 -114 0
-50 -141 0
-18 -166 0
-33 -166 0
-114 -166 0
-141 -166 0
-18 -33 0
-18 -114 0
-18 -141 0
-33 -114 0
-33 -141 0
-114 -141 0
-116 -133 0
-4 -133 0
-32 -133 0
-99 -133 0
-133 -149 0
-4 -116 0
-32 -116 0
-99 -116 0
-116 -149 0
-4 -32 0
-4 -99 0
-4 -149 0
-32 -99 0
-32 -149 0
-99 -149 0
-74 -202 0
-74 -154 0
-74 -193 0
-74 -189 0
-74 -227 0
-154 -202 0
-193 -202 0
-189 -202 0
-202 -227 0
-154 -193 0
-154 -189 0
-154 -227 0
-189 -193 0
-193 -227 0
-189 -227 0
-82 -87 0
-68 -87 0
-87 -238 0
-23 -87 0
-67 -87 0
-68 -82 0
-82 -238 0
-23 -82 0
-67 -82 0
-68 -238 0
-23 -68 0
-67 -68 0
-23 -238 0
-67 -238 0
-23 -67 0
-71 -229 0
-85 -229 0
-126 -229 0
-118 -229 0
-63 -229 0
-71 -85 0
-71 -126 0
-71 -118 0
-63 -71 0
-85 -126 0
-85 -118 0
-63 -85 0
-118 -126 0
-63 -126 0
-63 -118 0
-230 -231 0
-83 -230 0
-52 -230 0
-186 -230 0
-25 -230 0
-83 -231 0
-52 -231 0
-186 -231 0
-25 -231 0
-52 -83 0
-83 -186 0
-25 -83 0
-52 -186 0
-25 -52 0
-25 -186 0
-21 -232 0
-21 -151 0
-21 -163 0
-21 -35 0
-21 -89 0
-151 -232 0
-163 -232 0
-35 -232 0
-89 -232 0
-151 -163 0
-35 -151 0
-89 -151 0
-35 -163 0
-89 -163 0
-35 -89 0
-125 -233 0
-121 -233 0
-65 -233 0
-123 -233 0
-119 -233 0
-121 -125 0
-65 -125 0
-123 -125 0
-119 -125 0
-65 -121 0
-121 -123 0
-119 -121 0
-65 -123 0
-65 -119 0
-119 -123 0
-54 -234 0
-48 -234 0
-203 -234 0
-103 -234 0
-46 -234 0
-48 -54 0
-54 -203 0
-54 -103 0
-46 -54 0
-48 -203 0
-48 -103 0
-46 -48 0
-103 -203 0
-46 -203 0
-46 -103 0
-87 -229 0
-87 -230 0
-21 -87 0
-87 -233 0
-87 -234 0
-229 -230 0
-21 -229 0
-229 -233 0
-229 -234 0
-21 -230 0
-230 -233 0
-230 -234 0
-21 -233 0
-21 -234 0
-233 -234 0
-71 -82 0
-82 -231 0
-82 -232 0
-82 -125 0
-54 -82 0
-71 -231 0
-71 -232 0
-71 -125 0
-54 -71 0
-231 -232 0
-125 -231 0
-54 -231 0
-125 -232 0
-54 -232 0
-54 -125 0
-68 -85 0
-68 -83 0
-68 -151 0
-68 -121 0
-48 -68 0
-83 -85 0
-85 -151 0
-85 -121 0
-48 -85 0
-83 -151 0
-83 -121 0
-48 -83 0
-121 -151 0
-48 -151 0
-48 -121 0
-126 -238 0
-52 -238 0
-163 -238 0
-65 -238 0
-203 -238 0
-52 -126 0
-126 -163 0
-65 -126 0
-126 -203 0
-52 -163 0
-52 -65 0
-52 -203 0
-65 -163 0
-163 -203 0
-65 -203 0
-23 -118 0
-23 -186 0
-23 -35 0
-23 -123 0
-23 -103 0
-118 -186 0
-35 -118 0
-118 -123 0
-103 -118 0
-35 -186 0
-123 -186 0
-103 -186 0
-35 -123 0
-35 -103 0
-103 -123 0
-63 -67 0
-25 -67 0
-67 -89 0
-67 -119 0
-46 -67 0
-25 -63 0
-63 -89 0
-63 -119 0
-46 -63 0
-25 -89 0
-25 -119 0
-25 -46 0
-89 -119 0
-46 -89 0
-46 -119 0
-111 -127 0
-127 -235 0
-105 -127 0
-111 -235 0
-105 -111 0
-105 -235 0
-95 -207 0
-40 -95 0
-95 -236 0
-40 -207 0
-207 -236 0
-40 -236 0
-117 -122 0
-122 -237 0
-24 -122 0
-117 -237 0
-24 -117 0
-24 -237 0
-69 -239 0
-69 -228 0
-69 -86 0
-228 -239 0
-86 -239 0
-86 -228 0
-95 -127 0
-122 -127 0
-69 -127 0
-95 -122 0
-69 -95 0
-69 -122 0
-111 -207 0
-111 -117 0
-111 -239 0
-117 -207 0
-207 -239 0
-117 -239 0
-40 -235 0
-235 -237 0
-228 -235 0
-40 -237 0
-40 -228 0
-228 -237 0
-105 -236 0
-24 -105 0
-86 -105 0
-24 -236 0
-86 -236 0
-24 -86 0
-143 -219 0
-76 -219 0
-159 -219 0
-128 -219 0
-76 -143 0
-143 -159 0
-128 -143 0
-76 -159 0
-76 -128 0
-128 -159 0
-10 -44 0
-8 -10 0
-10 -104 0
-10 -221 0
-8 -44 0
-44 -104 0
-44 -221 0
-8 -104 0
-8 -221 0
-104 -221 0
-12 -14 0
-14 -130 0
-14 -240 0
-14 -72 0
-12 -130 0
-12 -240 0
-12 -72 0
-130 -240 0
-72 -130 0
-72 -240 0
-180 -241 0
-182 -241 0
-184 -241 0
-112 -241 0
-180 -182 0
-180 -184 0
-112 -180 0
-182 -184 0
-112 -182 0
-112 -184 0
-242 -243 0
-56 -242 0
-30 -242 0
-206 -242 0
-56 -243 0
-30 -243 0
-206 -243 0
-30 -56 0
-56 -206 0
-30 -206 0
-10 -219 0
-14 -219 0
-219 -241 0
-219 -242 0
-10 -14 0
-10 -241 0
-10 -242 0
-14 -241 0
-14 -242 0
-241 -242 0
-44 -143 0
-12 -143 0
-143 -180 0
-143 -243 0
-12 -44 0
-44 -180 0
-44 -243 0
-12 -180 0
-12 -243 0
-180 -243 0
-8 -76 0
-76 -130 0
-76 -182 0
-56 -76 0
-8 -130 0
-8 -182 0
-8 -56 0
-130 -182 0
-56 -130 0
-56 -182 0
-104 -159 0
-159 -240 0
-159 -184 0
-30 -159 0
-104 -240 0
-104 -184 0
-30 -104 0
-184 -240 0
-30 -240 0
-30 -184 0
-128 -221 0
-72 -128 0
-112 -128 0
-128 -206 0
-72 -221 0
-112 -221 0
-206 -221 0
-72 -112 0
-72 -206 0
-112 -206 0
-91 -176 0
-91 -109 0
-91 -146 0
-91 -198 0
-109 -176 0
-146 -176 0
-176 -198 0
-109 -146 0
-109 -198 0
-146 -198 0
-145 -200 0
-167 -200 0
-61 -200 0
-59 -200 0
-145 -167 0
-61 -145 0
-59 -145 0
-61 -167 0
-59 -167 0
-59 -61 0
-43 -51 0
-51 -244 0
-51 -225 0
-51 -157 0
-43 -244 0
-43 -225 0
-43 -157 0
-225 -244 0
-157 -244 0
-157 -225 0
-19 -245 0
-15 -19 0
-19 -246 0
-19 -136 0
-15 -245 0
-245 -246 0
-136 -245 0
-15 -246 0
-15 -136 0
-136 -246 0
-11 -81 0
-6 -81 0
-81 -247 0
-81 -248 0
-6 -11 0
-11 -247 0
-11 -248 0
-6 -247 0
-6 -248 0
-247 -248 0
-91 -200 0
-51 -91 0
-19 -91 0
-81 -91 0
-51 -200 0
-19 -200 0
-81 -200 0
-19 -51 0
-51 -81 0
-19 -81 0
-145 -176 0
-43 -176 0
-176 -245 0
-11 -176 0
-43 -145 0
-145 -245 0
-11 -145 0
-43 -245 0
-11 -43 0
-11 -245 0
-109 -167 0
-109 -244 0
-15 -109 0
-6 -109 0
-167 -244 0
-15 -167 0
-6 -167 0
-15 -244 0
-6 -244 0
-6 -15 0
-61 -146 0
-146 -225 0
-146 -246 0
-146 -247 0
-61 -225 0
-61 -246 0
-61 -247 0
-225 -246 0
-225 -247 0
-246 -247 0
-59 -198 0
-157 -198 0
-136 -198 0
-198 -248 0
-59 -157 0
-59 -136 0
-59 -248 0
-136 -157 0
-157 -248 0
-136 -248 0
-53 -170 0
-170 -187 0
-27 -170 0
-170 -250 0
-152 -170 0
-53 -187 0
-27 -53 0
-53 -250 0
-53 -152 0
-27 -187 0
-187 -250 0
-152 -187 0
-27 -250 0
-27 -152 0
-152 -250 0
-162 -196 0
-36 -196 0
-88 -196 0
-178 -196 0
-57 -196 0
-36 -162 0
-88 -162 0
-162 -178 0
-57 -162 0
-36 -88 0
-36 -178 0
-36 -57 0
-88 -178 0
-57 -88 0
-57 -178 0
-66 -251 0
-58 -251 0
-49 -251 0
-134 -251 0
-251 -252 0
-58 -66 0
-49 -66 0
-66 -134 0
-66 -252 0
-49 -58 0
-58 -134 0
-58 -252 0
-49 -134 0
-49 -252 0
-134 -252 0
-13 -205 0
-13 -101 0
-13 -17 0
-3 -13 0
-13 -253 0
-101 -205 0
-17 -205 0
-3 -205 0
-205 -253 0
-17 -101 0
-3 -101 0
-101 -253 0
-3 -17 0
-17 -253 0
-3 -253 0
-93 -155 0
-155 -177 0
-34 -155 0
-90 -155 0
-110 -155 0
-93 -177 0
-34 -93 0
-90 -93 0
-93 -110 0
-34 -177 0
-90 -177 0
-110 -177 0
-34 -90 0
-34 -110 0
-90 -110 0
-192 -194 0
-147 -192 0
-192 -199 0
-192 -201 0
-168 -192 0
-147 -194 0
-194 -199 0
-194 -201 0
-168 -194 0
-147 -199 0
-147 -201 0
-147 -168 0
-199 -201 0
-168 -199 0
-168 -201 0
-170 -196 0
-170 -251 0
-13 -170 0
-155 -170 0
-170 -192 0
-196 -251 0
-13 -196 0
-155 -196 0
-192 -196 0
-13 -251 0
-155 -251 0
-192 -251 0
-13 -155 0
-13 -192 0
-155 -192 0
-53 -162 0
-53 -66 0
-53 -205 0
-53 -93 0
-53 -194 0
-66 -162 0
-162 -205 0
-93 -162 0
-162 -194 0
-66 -205 0
-66 -93 0
-66 -194 0
-93 -205 0
-194 -205 0
-93 -194 0
-36 -187 0
-58 -187 0
-101 -187 0
-177 -187 0
-147 -187 0
-36 -58 0
-36 -101 0
-36 -177 0
-36 -147 0
-58 -101 0
-58 -177 0
-58 -147 0
-101 -177 0
-101 -147 0
-147 -177 0
-27 -88 0
-27 -49 0
-17 -27 0
-27 -34 0
-27 -199 0
-49 -88 0
-17 -88 0
-34 -88 0
-88 -199 0
-17 -49 0
-34 -49 0
-49 -199 0
-17 -34 0
-17 -199 0
-34 -199 0
-178 -250 0
-134 -250 0
-3 -250 0
-90 -250 0
-201 -250 0
-134 -178 0
-3 -178 0
-90 -178 0
-178 -201 0
-3 -134 0
-90 -134 0
-134 -201 0
-3 -90 0
-3 -201 0
-90 -201 0
-57 -152 0
-152 -252 0
-152 -253 0
-110 -152 0
-152 -168 0
-57 -252 0
-57 -253 0
-57 -110 0
-57 -168 0
-252 -253 0
-110 -252 0
-168 -252 0
-110 -253 0
-168 -253 0
-110 -168 0
-97 -164 0
-97 -172 0
-97 -179 0
-60 -97 0
-80 -97 0
-164 -172 0
-164 -179 0
-60 -164 0
-80 -164 0
-172 -179 0
-60 -172 0
-80 -172 0
-60 -179 0
-80 -179 0
-60 -80 0
-41 -254 0
-254 -255 0
-39 -254 0
-254 -256 0
-161 -254 0
-41 -255 0
-39 -41 0
-41 -256 0
-41 -161 0
-39 -255 0
-255 -256 0
-161 -255 0
-39 -256 0
-39 -161 0
-161 -256 0
-175 -257 0
-31 -175 0
-96 -175 0
-22 -175 0
-70 -175 0
-31 -257 0
-96 -257 0
-22 -257 0
-70 -257 0
-31 -96 0
-22 -31 0
-31 -70 0
-22 -96 0
-70 -96 0
-22 -70 0
-42 -258 0
-5 -42 0
-2 -42 0
-42 -259 0
-42 -260 0
-5 -258 0
-2 -258 0
-258 -259 0
-258 -260 0
-2 -5 0
-5 -259 0
-5 -260 0
-2 -259 0
-2 -260 0
-259 -260 0
-171 -183 0
-84 -183 0
-169 -183 0
-183 -185 0
-28 -183 0
-84 -171 0
-169 -171 0
-171 -185 0
-28 -171 0
-84 -169 0
-84 -185 0
-28 -84 0
-169 -185 0
-28 -169 0
-28 -185 0
-26 -249 0
-26 -153 0
-26 -195 0
-26 -37 0
-1 -26 0
-153 -249 0
-195 -249 0
-37 -249 0
-1 -249 0
-153 -195 0
-37 -153 0
-1 -153 0
-37 -195 0
-1 -195 0
-1 -37 0
-97 -254 0
-97 -175 0
-42 -97 0
-97 -183 0
-26 -97 0
-175 -254 0
-42 -254 0
-183 -254 0
-26 -254 0
-42 -175 0
-175 -183 0
-26 -175 0
-42 -183 0
-26 -42 0
-26 -183 0
-41 -164 0
-164 -257 0
-164 -258 0
-164 -171 0
-164 -249 0
-41 -257 0
-41 -258 0
-41 -171 0
-41 -249 0
-257 -258 0
-171 -257 0
-249 -257 0
-171 -258 0
-249 -258 0
-171 -249 0
-172 -255 0
-31 -172 0
-5 -172 0
-84 -172 0
-153 -172 0
-31 -255 0
-5 -255 0
-84 -255 0
-153 -255 0
-5 -31 0
-31 -84 0
-31 -153 0
-5 -84 0
-5 -153 0
-84 -153 0
-39 -179 0
-96 -179 0
-2 -179 0
-169 -179 0
-179 -195 0
-39 -96 0
-2 -39 0
-39 -169 0
-39 -195 0
-2 -96 0
-96 -169 0
-96 -195 0
-2 -169 0
-2 -195 0
-169 -195 0
-60 -256 0
-22 -60 0
-60 -259 0
-60 -185 0
-37 -60 0
-22 -256 0
-256 -259 0
-185 -256 0
-37 -256 0
-22 -259 0
-22 -185 0
-22 -37 0
-185 -259 0
-37 -259 0
-37 -185 0
-80 -161 0
-70 -80 0
-80 -260 0
-28 -80 0
-1 -80 0
-70 -161 0
-161 -260 0
-28 -161 0
-1 -161 0
-70 -260 0
-28 -70 0
-1 -70 0
-28 -260 0
-1 -260 0
-1 -28 0
